c instance by G2
c solution = 0010100011100
c Known solution cost is 620 
p cnf 13 30
w 33 22 68 36 27 35 64 75 21 94 15 75 55
-11 9 6 0
4 10 -5 0
8 -11 3 0
-13 7 -9 0
-6 8 -12 0
8 1 -7 0
10 1 -13 0
-10 5 6 0
-6 12 7 0
-8 13 -9 0
7 -12 -5 0
-7 -2 10 0
-10 -1 -3 0
4 6 3 0
4 7 11 0
4 -13 -6 0
-11 -7 1 0
-6 -12 8 0
-3 -7 -11 0
-7 -1 6 0
11 5 8 0
-6 -3 -1 0
-9 -8 -1 0
-3 -6 2 0
-4 7 -9 0
-8 13 -11 0
6 4 5 0
-3 -11 10 0
6 11 13 0
-9 13 -2 0
